n_sigma=   7, theta=  0.1419, angle=  8.
   4.04140000000000     
     3.5359714334999999    0.0000000000000000    0.0000000000000000
     0.0000000000000000    3.5359714334999999    0.0000000000000000
     0.0000000000000000    0.0000000000000000    4.1371692261000002
   Al
   200
Direct
  0.8041218394919767  0.3855014090644246  0.0079663353118278
  0.4500026529261305  0.9134396393291908  0.0121834498949909
  0.9791235030429846  0.2827762435315151  0.0031302872742813
  0.3260186449917626  0.7601842148047453  0.0082429583053383
  0.1536719104436983  0.8673188321418621  0.0013931567422958
  0.8463280895563017  0.1326811678581379  0.0013931567422958
  0.0000000000000000  0.0000000000000000  0.9994167124572328
  0.8673188321418621  0.8463280895563017  0.0013931567422958
  0.1958781605080233  0.6144985909355754  0.0079663353118278
  0.3573297835719131  0.4935423169596618  0.9975141751303767
  0.0865603606708092  0.4500026529261305  0.0121834498949909
  0.3855014090644246  0.1958781605080233  0.0079663353118278
  0.1326811678581379  0.1536719104436983  0.0013931567422958
  0.2398157851952547  0.3260186449917626  0.0082429583053383
  0.6739813550082374  0.2398157851952547  0.0082429583053383
  0.5064576830403382  0.3573297835719131  0.9975141751303767
  0.7601842148047453  0.6739813550082374  0.0082429583053383
  0.6426702164280869  0.5064576830403382  0.9975141751303767
  0.4935423169596618  0.6426702164280869  0.9975141751303767
  0.9134396393291908  0.5499973470738695  0.0121834498949909
  0.7172237564684849  0.9791235030429846  0.0031302872742813
  0.5499973470738695  0.0865603606708092  0.0121834498949909
  0.0208764969570154  0.7172237564684849  0.0031302872742813
  0.2827762435315151  0.0208764969570154  0.0031302872742813
  0.6144985909355754  0.8041218394919767  0.0079663353118278
  0.7002958787904632  0.1041767688660116  0.1279228650522768
  0.5344079230380459  0.2243274598661955  0.1266066297447281
  0.2997041212095368  0.8958232311339884  0.1279228650522768
  0.3437892646228136  0.6208589106398392  0.1250546474917371
  0.1767490683111461  0.7429676011562947  0.1282825273535053
  0.1041767688660116  0.2997041212095368  0.1279228650522768
  0.8958232311339884  0.7002958787904632  0.1279228650522768
  0.7429676011562947  0.8232509316888539  0.1282825273535053
  0.9424336427536986  0.4156098172386109  0.1286680113291681
  0.7756725401338045  0.5344079230380459  0.1266066297447281
  0.0575663572463014  0.5843901827613891  0.1286680113291681
  0.9847471505719980  0.1391030227255641  0.1236686926251522
  0.8232509316888539  0.2570323988437053  0.1282825273535053
  0.0152528494280020  0.8608969772744359  0.1236686926251522
  0.1391030227255641  0.0152528494280020  0.1236686926251522
  0.5843901827613891  0.9424336427536986  0.1286680113291681
  0.6208589106398392  0.6562107353771864  0.1250546474917371
  0.4655920769619541  0.7756725401338045  0.1266066297447281
  0.2570323988437053  0.1767490683111461  0.1282825273535053
  0.4156098172386109  0.0575663572463014  0.1286680113291681
  0.2243274598661955  0.4655920769619541  0.1266066297447281
  0.3791410893601608  0.3437892646228136  0.1250546474917371
  0.8608969772744359  0.9847471505719980  0.1236686926251522
  0.6562107353771864  0.3791410893601608  0.1250546474917371
  0.5000000000000000  0.5000000000000000  0.1221863712789997
  0.1562107353771864  0.8791410893601608  0.2499453525082629
  0.2429676011562947  0.3232509316888539  0.2467174726464947
  0.0000000000000000  0.0000000000000000  0.2528136287210003
  0.1208589106398392  0.1562107353771864  0.2499453525082629
  0.7243274598661955  0.9655920769619541  0.2483933702552719
  0.3958232311339884  0.2002958787904632  0.2470771349477232
  0.7997041212095368  0.3958232311339884  0.2470771349477232
  0.6391030227255641  0.5152528494280020  0.2513313073748478
  0.5152528494280020  0.3608969772744359  0.2513313073748478
  0.9156098172386109  0.5575663572463014  0.2463319886708319
  0.0843901827613891  0.4424336427536986  0.2463319886708319
  0.7570323988437053  0.6767490683111461  0.2467174726464947
  0.6767490683111461  0.2429676011562947  0.2467174726464947
  0.4424336427536986  0.9156098172386109  0.2463319886708319
  0.5575663572463014  0.0843901827613891  0.2463319886708319
  0.8437892646228136  0.1208589106398392  0.2499453525082629
  0.6041767688660116  0.7997041212095368  0.2470771349477232
  0.4847471505719980  0.6391030227255641  0.2513313073748478
  0.9655920769619541  0.2756725401338045  0.2483933702552719
  0.3232509316888539  0.7570323988437053  0.2467174726464947
  0.3608969772744359  0.4847471505719980  0.2513313073748478
  0.0344079230380459  0.7243274598661955  0.2483933702552719
  0.8791410893601608  0.8437892646228136  0.2499453525082629
  0.2002958787904632  0.6041767688660116  0.2470771349477232
  0.2756725401338045  0.0344079230380459  0.2483933702552719
  0.5865603606708092  0.9500026529261305  0.3628165501050091
  0.1426702164280869  0.0064576830403382  0.3774858248696233
  0.1144985909355754  0.3041218394919767  0.3670336646881722
  0.0499973470738695  0.5865603606708092  0.3628165501050091
  0.0064576830403382  0.8573297835719131  0.3774858248696233
  0.2601842148047453  0.1739813550082374  0.3667570416946617
  0.4134396393291908  0.0499973470738695  0.3628165501050091
  0.2172237564684849  0.4791235030429846  0.3718697127257187
  0.3673188321418621  0.3463280895563017  0.3736068432577042
  0.1739813550082374  0.7398157851952547  0.3667570416946617
  0.3463280895563017  0.6326811678581379  0.3736068432577042
  0.3041218394919767  0.8855014090644246  0.3670336646881722
  0.5208764969570154  0.2172237564684849  0.3718697127257187
  0.6958781605080233  0.1144985909355754  0.3670336646881722
  0.5000000000000000  0.5000000000000000  0.3755832875427672
  0.6536719104436983  0.3673188321418621  0.3736068432577042
  0.4791235030429846  0.7827762435315151  0.3718697127257187
  0.6326811678581379  0.6536719104436983  0.3736068432577042
  0.8260186449917626  0.2601842148047453  0.3667570416946617
  0.9935423169596618  0.1426702164280869  0.3774858248696233
  0.7827762435315151  0.5208764969570154  0.3718697127257187
  0.9500026529261305  0.4134396393291908  0.3628165501050091
  0.7398157851952547  0.8260186449917626  0.3667570416946617
  0.8855014090644246  0.6958781605080233  0.3670336646881722
  0.8573297835719131  0.9935423169596618  0.3774858248696233
  0.0865603606708092  0.5499973470738695  0.5121834498949909
  0.6739813550082374  0.7601842148047453  0.5082429583053383
  0.3573297835719131  0.5064576830403382  0.4975141751303767
  0.1326811678581379  0.8463280895563017  0.5013931567422958
  0.7172237564684849  0.0208764969570154  0.5031302872742813
  0.1958781605080233  0.3855014090644246  0.5079663353118278
  0.8041218394919767  0.6144985909355754  0.5079663353118278
  0.6426702164280869  0.4935423169596618  0.4975141751303767
  0.9134396393291908  0.4500026529261305  0.5121834498949909
  0.2827762435315151  0.9791235030429846  0.5031302872742813
  0.4935423169596618  0.3573297835719131  0.4975141751303767
  0.1536719104436983  0.1326811678581379  0.5013931567422958
  0.6144985909355754  0.1958781605080233  0.5079663353118278
  0.8673188321418621  0.1536719104436983  0.5013931567422958
  0.0000000000000000  0.0000000000000000  0.4994167124572328
  0.5064576830403382  0.6426702164280869  0.4975141751303767
  0.9791235030429846  0.7172237564684849  0.5031302872742813
  0.0208764969570154  0.2827762435315151  0.5031302872742813
  0.2398157851952547  0.6739813550082374  0.5082429583053383
  0.3855014090644246  0.8041218394919767  0.5079663353118278
  0.3260186449917626  0.2398157851952547  0.5082429583053383
  0.4500026529261305  0.0865603606708092  0.5121834498949909
  0.5499973470738695  0.9134396393291908  0.5121834498949909
  0.8463280895563017  0.8673188321418621  0.5013931567422958
  0.7601842148047453  0.3260186449917626  0.5082429583053383
  0.8958232311339884  0.2997041212095368  0.6279228650522768
  0.0575663572463014  0.4156098172386109  0.6286680113291681
  0.9847471505719980  0.8608969772744359  0.6236686926251522
  0.6208589106398392  0.3437892646228136  0.6250546474917371
  0.5000000000000000  0.5000000000000000  0.6221863712789997
  0.3791410893601608  0.6562107353771864  0.6250546474917371
  0.4156098172386109  0.9424336427536986  0.6286680113291681
  0.5344079230380459  0.7756725401338045  0.6266066297447281
  0.7429676011562947  0.1767490683111461  0.6282825273535053
  0.2997041212095368  0.1041767688660116  0.6279228650522768
  0.6562107353771864  0.6208589106398392  0.6250546474917371
  0.7756725401338045  0.4655920769619541  0.6266066297447281
  0.5843901827613891  0.0575663572463014  0.6286680113291681
  0.2570323988437053  0.8232509316888539  0.6282825273535053
  0.1391030227255641  0.9847471505719980  0.6236686926251522
  0.7002958787904632  0.8958232311339884  0.6279228650522768
  0.8232509316888539  0.7429676011562947  0.6282825273535053
  0.4655920769619541  0.2243274598661955  0.6266066297447281
  0.3437892646228136  0.3791410893601608  0.6250546474917371
  0.2243274598661955  0.5344079230380459  0.6266066297447281
  0.1041767688660116  0.7002958787904632  0.6279228650522768
  0.9424336427536986  0.5843901827613891  0.6286680113291681
  0.0152528494280020  0.1391030227255641  0.6236686926251522
  0.8608969772744359  0.0152528494280020  0.6236686926251522
  0.1767490683111461  0.2570323988437053  0.6282825273535053
  0.7997041212095368  0.6041767688660116  0.7470771349477232
  0.3608969772744359  0.5152528494280020  0.7513313073748478
  0.2429676011562947  0.6767490683111461  0.7467174726464947
  0.1562107353771864  0.1208589106398392  0.7499453525082629
  0.9156098172386109  0.4424336427536986  0.7463319886708319
  0.3958232311339884  0.7997041212095368  0.7470771349477232
  0.6767490683111461  0.7570323988437053  0.7467174726464947
  0.4847471505719980  0.3608969772744359  0.7513313073748478
  0.7243274598661955  0.0344079230380459  0.7483933702552719
  0.8437892646228136  0.8791410893601608  0.7499453525082629
  0.2002958787904632  0.3958232311339884  0.7470771349477232
  0.4424336427536986  0.0843901827613891  0.7463319886708319
  0.0843901827613891  0.5575663572463014  0.7463319886708319
  0.9655920769619541  0.7243274598661955  0.7483933702552719
  0.1208589106398392  0.8437892646228136  0.7499453525082629
  0.0000000000000000  0.0000000000000000  0.7528136287210003
  0.5575663572463014  0.9156098172386109  0.7463319886708319
  0.0344079230380459  0.2756725401338045  0.7483933702552719
  0.2756725401338045  0.9655920769619541  0.7483933702552719
  0.6391030227255641  0.4847471505719980  0.7513313073748478
  0.5152528494280020  0.6391030227255641  0.7513313073748478
  0.7570323988437053  0.3232509316888539  0.7467174726464947
  0.8791410893601608  0.1562107353771864  0.7499453525082629
  0.3232509316888539  0.2429676011562947  0.7467174726464947
  0.6041767688660116  0.2002958787904632  0.7470771349477232
  0.4134396393291908  0.9500026529261305  0.8628165501050091
  0.4791235030429846  0.2172237564684849  0.8718697127257187
  0.3463280895563017  0.3673188321418621  0.8736068432577042
  0.5865603606708092  0.0499973470738695  0.8628165501050091
  0.3041218394919767  0.1144985909355754  0.8670336646881722
  0.6326811678581379  0.3463280895563017  0.8736068432577042
  0.7398157851952547  0.1739813550082374  0.8667570416946617
  0.2601842148047453  0.8260186449917626  0.8667570416946617
  0.1426702164280869  0.9935423169596618  0.8774858248696233
  0.9500026529261305  0.5865603606708092  0.8628165501050091
  0.6536719104436983  0.6326811678581379  0.8736068432577042
  0.7827762435315151  0.4791235030429846  0.8718697127257187
  0.6958781605080233  0.8855014090644246  0.8670336646881722
  0.8260186449917626  0.7398157851952547  0.8667570416946617
  0.2172237564684849  0.5208764969570154  0.8718697127257187
  0.1144985909355754  0.6958781605080233  0.8670336646881722
  0.8573297835719131  0.0064576830403382  0.8774858248696233
  0.1739813550082374  0.2601842148047453  0.8667570416946617
  0.0499973470738695  0.4134396393291908  0.8628165501050091
  0.9935423169596618  0.8573297835719131  0.8774858248696233
  0.8855014090644246  0.3041218394919767  0.8670336646881722
  0.0064576830403382  0.1426702164280869  0.8774858248696233
  0.3673188321418621  0.6536719104436983  0.8736068432577042
  0.5000000000000000  0.5000000000000000  0.8755832875427672
  0.5208764969570154  0.7827762435315151  0.8718697127257187
 
  0.00000000E+00  0.00000000E+00  0.00000000E+00
  0.00000000E+00  0.00000000E+00  0.00000000E+00
  0.00000000E+00  0.00000000E+00  0.00000000E+00
  0.00000000E+00  0.00000000E+00  0.00000000E+00
  0.00000000E+00  0.00000000E+00  0.00000000E+00
  0.00000000E+00  0.00000000E+00  0.00000000E+00
  0.00000000E+00  0.00000000E+00  0.00000000E+00
  0.00000000E+00  0.00000000E+00  0.00000000E+00
  0.00000000E+00  0.00000000E+00  0.00000000E+00
  0.00000000E+00  0.00000000E+00  0.00000000E+00
  0.00000000E+00  0.00000000E+00  0.00000000E+00
  0.00000000E+00  0.00000000E+00  0.00000000E+00
  0.00000000E+00  0.00000000E+00  0.00000000E+00
  0.00000000E+00  0.00000000E+00  0.00000000E+00
  0.00000000E+00  0.00000000E+00  0.00000000E+00
  0.00000000E+00  0.00000000E+00  0.00000000E+00
  0.00000000E+00  0.00000000E+00  0.00000000E+00
  0.00000000E+00  0.00000000E+00  0.00000000E+00
  0.00000000E+00  0.00000000E+00  0.00000000E+00
  0.00000000E+00  0.00000000E+00  0.00000000E+00
  0.00000000E+00  0.00000000E+00  0.00000000E+00
  0.00000000E+00  0.00000000E+00  0.00000000E+00
  0.00000000E+00  0.00000000E+00  0.00000000E+00
  0.00000000E+00  0.00000000E+00  0.00000000E+00
  0.00000000E+00  0.00000000E+00  0.00000000E+00
  0.00000000E+00  0.00000000E+00  0.00000000E+00
  0.00000000E+00  0.00000000E+00  0.00000000E+00
  0.00000000E+00  0.00000000E+00  0.00000000E+00
  0.00000000E+00  0.00000000E+00  0.00000000E+00
  0.00000000E+00  0.00000000E+00  0.00000000E+00
  0.00000000E+00  0.00000000E+00  0.00000000E+00
  0.00000000E+00  0.00000000E+00  0.00000000E+00
  0.00000000E+00  0.00000000E+00  0.00000000E+00
  0.00000000E+00  0.00000000E+00  0.00000000E+00
  0.00000000E+00  0.00000000E+00  0.00000000E+00
  0.00000000E+00  0.00000000E+00  0.00000000E+00
  0.00000000E+00  0.00000000E+00  0.00000000E+00
  0.00000000E+00  0.00000000E+00  0.00000000E+00
  0.00000000E+00  0.00000000E+00  0.00000000E+00
  0.00000000E+00  0.00000000E+00  0.00000000E+00
  0.00000000E+00  0.00000000E+00  0.00000000E+00
  0.00000000E+00  0.00000000E+00  0.00000000E+00
  0.00000000E+00  0.00000000E+00  0.00000000E+00
  0.00000000E+00  0.00000000E+00  0.00000000E+00
  0.00000000E+00  0.00000000E+00  0.00000000E+00
  0.00000000E+00  0.00000000E+00  0.00000000E+00
  0.00000000E+00  0.00000000E+00  0.00000000E+00
  0.00000000E+00  0.00000000E+00  0.00000000E+00
  0.00000000E+00  0.00000000E+00  0.00000000E+00
  0.00000000E+00  0.00000000E+00  0.00000000E+00
  0.00000000E+00  0.00000000E+00  0.00000000E+00
  0.00000000E+00  0.00000000E+00  0.00000000E+00
  0.00000000E+00  0.00000000E+00  0.00000000E+00
  0.00000000E+00  0.00000000E+00  0.00000000E+00
  0.00000000E+00  0.00000000E+00  0.00000000E+00
  0.00000000E+00  0.00000000E+00  0.00000000E+00
  0.00000000E+00  0.00000000E+00  0.00000000E+00
  0.00000000E+00  0.00000000E+00  0.00000000E+00
  0.00000000E+00  0.00000000E+00  0.00000000E+00
  0.00000000E+00  0.00000000E+00  0.00000000E+00
  0.00000000E+00  0.00000000E+00  0.00000000E+00
  0.00000000E+00  0.00000000E+00  0.00000000E+00
  0.00000000E+00  0.00000000E+00  0.00000000E+00
  0.00000000E+00  0.00000000E+00  0.00000000E+00
  0.00000000E+00  0.00000000E+00  0.00000000E+00
  0.00000000E+00  0.00000000E+00  0.00000000E+00
  0.00000000E+00  0.00000000E+00  0.00000000E+00
  0.00000000E+00  0.00000000E+00  0.00000000E+00
  0.00000000E+00  0.00000000E+00  0.00000000E+00
  0.00000000E+00  0.00000000E+00  0.00000000E+00
  0.00000000E+00  0.00000000E+00  0.00000000E+00
  0.00000000E+00  0.00000000E+00  0.00000000E+00
  0.00000000E+00  0.00000000E+00  0.00000000E+00
  0.00000000E+00  0.00000000E+00  0.00000000E+00
  0.00000000E+00  0.00000000E+00  0.00000000E+00
  0.00000000E+00  0.00000000E+00  0.00000000E+00
  0.00000000E+00  0.00000000E+00  0.00000000E+00
  0.00000000E+00  0.00000000E+00  0.00000000E+00
  0.00000000E+00  0.00000000E+00  0.00000000E+00
  0.00000000E+00  0.00000000E+00  0.00000000E+00
  0.00000000E+00  0.00000000E+00  0.00000000E+00
  0.00000000E+00  0.00000000E+00  0.00000000E+00
  0.00000000E+00  0.00000000E+00  0.00000000E+00
  0.00000000E+00  0.00000000E+00  0.00000000E+00
  0.00000000E+00  0.00000000E+00  0.00000000E+00
  0.00000000E+00  0.00000000E+00  0.00000000E+00
  0.00000000E+00  0.00000000E+00  0.00000000E+00
  0.00000000E+00  0.00000000E+00  0.00000000E+00
  0.00000000E+00  0.00000000E+00  0.00000000E+00
  0.00000000E+00  0.00000000E+00  0.00000000E+00
  0.00000000E+00  0.00000000E+00  0.00000000E+00
  0.00000000E+00  0.00000000E+00  0.00000000E+00
  0.00000000E+00  0.00000000E+00  0.00000000E+00
  0.00000000E+00  0.00000000E+00  0.00000000E+00
  0.00000000E+00  0.00000000E+00  0.00000000E+00
  0.00000000E+00  0.00000000E+00  0.00000000E+00
  0.00000000E+00  0.00000000E+00  0.00000000E+00
  0.00000000E+00  0.00000000E+00  0.00000000E+00
  0.00000000E+00  0.00000000E+00  0.00000000E+00
  0.00000000E+00  0.00000000E+00  0.00000000E+00
  0.00000000E+00  0.00000000E+00  0.00000000E+00
  0.00000000E+00  0.00000000E+00  0.00000000E+00
  0.00000000E+00  0.00000000E+00  0.00000000E+00
  0.00000000E+00  0.00000000E+00  0.00000000E+00
  0.00000000E+00  0.00000000E+00  0.00000000E+00
  0.00000000E+00  0.00000000E+00  0.00000000E+00
  0.00000000E+00  0.00000000E+00  0.00000000E+00
  0.00000000E+00  0.00000000E+00  0.00000000E+00
  0.00000000E+00  0.00000000E+00  0.00000000E+00
  0.00000000E+00  0.00000000E+00  0.00000000E+00
  0.00000000E+00  0.00000000E+00  0.00000000E+00
  0.00000000E+00  0.00000000E+00  0.00000000E+00
  0.00000000E+00  0.00000000E+00  0.00000000E+00
  0.00000000E+00  0.00000000E+00  0.00000000E+00
  0.00000000E+00  0.00000000E+00  0.00000000E+00
  0.00000000E+00  0.00000000E+00  0.00000000E+00
  0.00000000E+00  0.00000000E+00  0.00000000E+00
  0.00000000E+00  0.00000000E+00  0.00000000E+00
  0.00000000E+00  0.00000000E+00  0.00000000E+00
  0.00000000E+00  0.00000000E+00  0.00000000E+00
  0.00000000E+00  0.00000000E+00  0.00000000E+00
  0.00000000E+00  0.00000000E+00  0.00000000E+00
  0.00000000E+00  0.00000000E+00  0.00000000E+00
  0.00000000E+00  0.00000000E+00  0.00000000E+00
  0.00000000E+00  0.00000000E+00  0.00000000E+00
  0.00000000E+00  0.00000000E+00  0.00000000E+00
  0.00000000E+00  0.00000000E+00  0.00000000E+00
  0.00000000E+00  0.00000000E+00  0.00000000E+00
  0.00000000E+00  0.00000000E+00  0.00000000E+00
  0.00000000E+00  0.00000000E+00  0.00000000E+00
  0.00000000E+00  0.00000000E+00  0.00000000E+00
  0.00000000E+00  0.00000000E+00  0.00000000E+00
  0.00000000E+00  0.00000000E+00  0.00000000E+00
  0.00000000E+00  0.00000000E+00  0.00000000E+00
  0.00000000E+00  0.00000000E+00  0.00000000E+00
  0.00000000E+00  0.00000000E+00  0.00000000E+00
  0.00000000E+00  0.00000000E+00  0.00000000E+00
  0.00000000E+00  0.00000000E+00  0.00000000E+00
  0.00000000E+00  0.00000000E+00  0.00000000E+00
  0.00000000E+00  0.00000000E+00  0.00000000E+00
  0.00000000E+00  0.00000000E+00  0.00000000E+00
  0.00000000E+00  0.00000000E+00  0.00000000E+00
  0.00000000E+00  0.00000000E+00  0.00000000E+00
  0.00000000E+00  0.00000000E+00  0.00000000E+00
  0.00000000E+00  0.00000000E+00  0.00000000E+00
  0.00000000E+00  0.00000000E+00  0.00000000E+00
  0.00000000E+00  0.00000000E+00  0.00000000E+00
  0.00000000E+00  0.00000000E+00  0.00000000E+00
  0.00000000E+00  0.00000000E+00  0.00000000E+00
  0.00000000E+00  0.00000000E+00  0.00000000E+00
  0.00000000E+00  0.00000000E+00  0.00000000E+00
  0.00000000E+00  0.00000000E+00  0.00000000E+00
  0.00000000E+00  0.00000000E+00  0.00000000E+00
  0.00000000E+00  0.00000000E+00  0.00000000E+00
  0.00000000E+00  0.00000000E+00  0.00000000E+00
  0.00000000E+00  0.00000000E+00  0.00000000E+00
  0.00000000E+00  0.00000000E+00  0.00000000E+00
  0.00000000E+00  0.00000000E+00  0.00000000E+00
  0.00000000E+00  0.00000000E+00  0.00000000E+00
  0.00000000E+00  0.00000000E+00  0.00000000E+00
  0.00000000E+00  0.00000000E+00  0.00000000E+00
  0.00000000E+00  0.00000000E+00  0.00000000E+00
  0.00000000E+00  0.00000000E+00  0.00000000E+00
  0.00000000E+00  0.00000000E+00  0.00000000E+00
  0.00000000E+00  0.00000000E+00  0.00000000E+00
  0.00000000E+00  0.00000000E+00  0.00000000E+00
  0.00000000E+00  0.00000000E+00  0.00000000E+00
  0.00000000E+00  0.00000000E+00  0.00000000E+00
  0.00000000E+00  0.00000000E+00  0.00000000E+00
  0.00000000E+00  0.00000000E+00  0.00000000E+00
  0.00000000E+00  0.00000000E+00  0.00000000E+00
  0.00000000E+00  0.00000000E+00  0.00000000E+00
  0.00000000E+00  0.00000000E+00  0.00000000E+00
  0.00000000E+00  0.00000000E+00  0.00000000E+00
  0.00000000E+00  0.00000000E+00  0.00000000E+00
  0.00000000E+00  0.00000000E+00  0.00000000E+00
  0.00000000E+00  0.00000000E+00  0.00000000E+00
  0.00000000E+00  0.00000000E+00  0.00000000E+00
  0.00000000E+00  0.00000000E+00  0.00000000E+00
  0.00000000E+00  0.00000000E+00  0.00000000E+00
  0.00000000E+00  0.00000000E+00  0.00000000E+00
  0.00000000E+00  0.00000000E+00  0.00000000E+00
  0.00000000E+00  0.00000000E+00  0.00000000E+00
  0.00000000E+00  0.00000000E+00  0.00000000E+00
  0.00000000E+00  0.00000000E+00  0.00000000E+00
  0.00000000E+00  0.00000000E+00  0.00000000E+00
  0.00000000E+00  0.00000000E+00  0.00000000E+00
  0.00000000E+00  0.00000000E+00  0.00000000E+00
  0.00000000E+00  0.00000000E+00  0.00000000E+00
  0.00000000E+00  0.00000000E+00  0.00000000E+00
  0.00000000E+00  0.00000000E+00  0.00000000E+00
  0.00000000E+00  0.00000000E+00  0.00000000E+00
  0.00000000E+00  0.00000000E+00  0.00000000E+00
  0.00000000E+00  0.00000000E+00  0.00000000E+00
  0.00000000E+00  0.00000000E+00  0.00000000E+00
  0.00000000E+00  0.00000000E+00  0.00000000E+00
  0.00000000E+00  0.00000000E+00  0.00000000E+00
  0.00000000E+00  0.00000000E+00  0.00000000E+00
  0.00000000E+00  0.00000000E+00  0.00000000E+00
  0.00000000E+00  0.00000000E+00  0.00000000E+00
