twist boundary                          
   4.04140000000000     
     1.5982011449000000    0.0000000000000000    0.0000000000000000
     0.0000000000000000    1.5982011449000000    0.0000000000000000
     0.0000000000000000    0.0000000000000000    4.2114783042999999
   Al
    40
Direct
  0.0000000000000000  0.0000000000000000  0.9916757068420168
  0.2973407864164628  0.0979294531393649  0.1255684464421023
  0.2035654470263779  0.4056339923216328  0.0103637471673395
  0.0000000000000000  0.0000000000000000  0.2438033862607654
  0.2964345529736221  0.0943660076783672  0.3646362528326605
  0.2026592135835372  0.4020705468606351  0.2494315535578977
  0.0000000000000000  0.0000000000000000  0.4916757068420168
  0.0979294531393649  0.2973407864164628  0.6255684464421023
  0.4056339923216328  0.2035654470263779  0.5103637471673395
  0.0000000000000000  0.0000000000000000  0.7438033862607654
  0.0943660076783672  0.2964345529736221  0.8646362528326605
  0.4020705468606351  0.2026592135835372  0.7494315535578977
  0.0979294531393649  0.7026592135835372  0.1255684464421023
  0.0943660076783672  0.7035654470263779  0.3646362528326605
  0.2035654470263779  0.5943660076783672  0.5103637471673395
  0.2973407864164628  0.9020705468606351  0.6255684464421023
  0.5000000000000000  0.5000000000000000  0.6311966137392346
  0.5943660076783672  0.7964345529736221  0.5103637471673395
  0.2026592135835372  0.5979294531393649  0.7494315535578977
  0.2964345529736221  0.9056339923216328  0.8646362528326605
  0.5000000000000000  0.5000000000000000  0.8833242931579832
  0.5979294531393649  0.7973407864164628  0.7494315535578977
  0.5943660076783672  0.2035654470263779  0.0103637471673395
  0.5000000000000000  0.5000000000000000  0.1311966137392346
  0.9020705468606351  0.2973407864164628  0.1255684464421023
  0.7964345529736221  0.5943660076783672  0.0103637471673395
  0.5979294531393649  0.2026592135835372  0.2494315535578977
  0.5000000000000000  0.5000000000000000  0.3833242931579832
  0.9056339923216328  0.2964345529736221  0.3646362528326605
  0.7973407864164628  0.5979294531393649  0.2494315535578977
  0.7026592135835372  0.0979294531393649  0.6255684464421023
  0.7035654470263779  0.0943660076783672  0.8646362528326605
  0.4056339923216328  0.7964345529736221  0.0103637471673395
  0.7026592135835372  0.9020705468606351  0.1255684464421023
  0.4020705468606351  0.7973407864164628  0.2494315535578977
  0.7035654470263779  0.9056339923216328  0.3646362528326605
  0.7964345529736221  0.4056339923216328  0.5103637471673395
  0.9020705468606351  0.7026592135835372  0.6255684464421023
  0.7973407864164628  0.4020705468606351  0.7494315535578977
  0.9056339923216328  0.7035654470263779  0.8646362528326605
 
  0.00000000E+00  0.00000000E+00  0.00000000E+00
  0.00000000E+00  0.00000000E+00  0.00000000E+00
  0.00000000E+00  0.00000000E+00  0.00000000E+00
  0.00000000E+00  0.00000000E+00  0.00000000E+00
  0.00000000E+00  0.00000000E+00  0.00000000E+00
  0.00000000E+00  0.00000000E+00  0.00000000E+00
  0.00000000E+00  0.00000000E+00  0.00000000E+00
  0.00000000E+00  0.00000000E+00  0.00000000E+00
  0.00000000E+00  0.00000000E+00  0.00000000E+00
  0.00000000E+00  0.00000000E+00  0.00000000E+00
  0.00000000E+00  0.00000000E+00  0.00000000E+00
  0.00000000E+00  0.00000000E+00  0.00000000E+00
  0.00000000E+00  0.00000000E+00  0.00000000E+00
  0.00000000E+00  0.00000000E+00  0.00000000E+00
  0.00000000E+00  0.00000000E+00  0.00000000E+00
  0.00000000E+00  0.00000000E+00  0.00000000E+00
  0.00000000E+00  0.00000000E+00  0.00000000E+00
  0.00000000E+00  0.00000000E+00  0.00000000E+00
  0.00000000E+00  0.00000000E+00  0.00000000E+00
  0.00000000E+00  0.00000000E+00  0.00000000E+00
  0.00000000E+00  0.00000000E+00  0.00000000E+00
  0.00000000E+00  0.00000000E+00  0.00000000E+00
  0.00000000E+00  0.00000000E+00  0.00000000E+00
  0.00000000E+00  0.00000000E+00  0.00000000E+00
  0.00000000E+00  0.00000000E+00  0.00000000E+00
  0.00000000E+00  0.00000000E+00  0.00000000E+00
  0.00000000E+00  0.00000000E+00  0.00000000E+00
  0.00000000E+00  0.00000000E+00  0.00000000E+00
  0.00000000E+00  0.00000000E+00  0.00000000E+00
  0.00000000E+00  0.00000000E+00  0.00000000E+00
  0.00000000E+00  0.00000000E+00  0.00000000E+00
  0.00000000E+00  0.00000000E+00  0.00000000E+00
  0.00000000E+00  0.00000000E+00  0.00000000E+00
  0.00000000E+00  0.00000000E+00  0.00000000E+00
  0.00000000E+00  0.00000000E+00  0.00000000E+00
  0.00000000E+00  0.00000000E+00  0.00000000E+00
  0.00000000E+00  0.00000000E+00  0.00000000E+00
  0.00000000E+00  0.00000000E+00  0.00000000E+00
  0.00000000E+00  0.00000000E+00  0.00000000E+00
  0.00000000E+00  0.00000000E+00  0.00000000E+00
