n_sigma=   3, theta=  0.3218, angle= 18.
   4.04140000000000     
     1.5866695003000000    0.0000000000000000    0.0000000000000000
     0.0000000000000000    1.5866695003000000    0.0000000000000000
     0.0000000000000000    0.0000000000000000    8.1376086090000008
   Al
    80
Direct
  0.0000000000000000  0.0000000000000000  0.9963305034681937
  0.2031818784962169  0.4072744774802928  0.0059444789174705
  0.5927255225197072  0.2031818784962169  0.0059444789174705
  0.7968181215037831  0.5927255225197072  0.0059444789174705
  0.4072744774802928  0.7968181215037831  0.0059444789174705
  0.2947683787711526  0.0992786650973088  0.0644389239119647
  0.0992786650973088  0.7052316212288474  0.0644389239119647
  0.5000000000000000  0.5000000000000000  0.0673932722941473
  0.9007213349026912  0.2947683787711526  0.0644389239119647
  0.7052316212288474  0.9007213349026912  0.0644389239119647
  0.0000000000000000  0.0000000000000000  0.1268790743307875
  0.1980774299206729  0.4010391243674576  0.1266888649079547
  0.5989608756325424  0.1980774299206729  0.1266888649079547
  0.8019225700793271  0.5989608756325424  0.1266888649079547
  0.4010391243674576  0.8019225700793271  0.1266888649079547
  0.2995432625429260  0.1007478819325200  0.1882353007578246
  0.1007478819325200  0.7004567374570740  0.1882353007578246
  0.5000000000000000  0.5000000000000000  0.1879029207188410
  0.8992521180674800  0.2995432625429260  0.1882353007578246
  0.7004567374570740  0.8992521180674800  0.1882353007578246
  0.0000000000000000  0.0000000000000000  0.2495970792811590
  0.2004567374570740  0.3992521180674800  0.2492646992421754
  0.6007478819325200  0.2004567374570740  0.2492646992421754
  0.7995432625429260  0.6007478819325200  0.2492646992421754
  0.3992521180674800  0.7995432625429260  0.2492646992421754
  0.3019225700793271  0.0989608756325424  0.3108111350920453
  0.0989608756325424  0.6980774299206729  0.3108111350920453
  0.5000000000000000  0.5000000000000000  0.3106209256692125
  0.9010391243674576  0.3019225700793271  0.3108111350920453
  0.6980774299206729  0.9010391243674576  0.3108111350920453
  0.0000000000000000  0.0000000000000000  0.3701067277058527
  0.2052316212288474  0.4007213349026912  0.3730610760880353
  0.5992786650973088  0.2052316212288474  0.3730610760880353
  0.7947683787711526  0.5992786650973088  0.3730610760880353
  0.4007213349026912  0.7947683787711526  0.3730610760880353
  0.2968181215037831  0.0927255225197072  0.4315555210825295
  0.0927255225197072  0.7031818784962169  0.4315555210825295
  0.5000000000000000  0.5000000000000000  0.4411694965318063
  0.9072744774802928  0.2968181215037831  0.4315555210825295
  0.7031818784962169  0.9072744774802928  0.4315555210825295
  0.0000000000000000  0.0000000000000000  0.4963305034681937
  0.4072744774802928  0.2031818784962169  0.5059444789174705
  0.2031818784962169  0.5927255225197072  0.5059444789174705
  0.5927255225197072  0.7968181215037831  0.5059444789174705
  0.7968181215037831  0.4072744774802928  0.5059444789174705
  0.0992786650973088  0.2947683787711526  0.5644389239119647
  0.2947683787711526  0.9007213349026912  0.5644389239119647
  0.5000000000000000  0.5000000000000000  0.5673932722941473
  0.7052316212288474  0.0992786650973088  0.5644389239119647
  0.9007213349026912  0.7052316212288474  0.5644389239119647
  0.0000000000000000  0.0000000000000000  0.6268790743307875
  0.4010391243674576  0.1980774299206729  0.6266888649079547
  0.1980774299206729  0.5989608756325424  0.6266888649079547
  0.5989608756325424  0.8019225700793271  0.6266888649079547
  0.8019225700793271  0.4010391243674576  0.6266888649079547
  0.1007478819325200  0.2995432625429260  0.6882353007578246
  0.2995432625429260  0.8992521180674800  0.6882353007578246
  0.5000000000000000  0.5000000000000000  0.6879029207188410
  0.7004567374570740  0.1007478819325200  0.6882353007578246
  0.8992521180674800  0.7004567374570740  0.6882353007578246
  0.0000000000000000  0.0000000000000000  0.7495970792811590
  0.3992521180674800  0.2004567374570740  0.7492646992421754
  0.2004567374570740  0.6007478819325200  0.7492646992421754
  0.6007478819325200  0.7995432625429260  0.7492646992421754
  0.7995432625429260  0.3992521180674800  0.7492646992421754
  0.0989608756325424  0.3019225700793271  0.8108111350920453
  0.3019225700793271  0.9010391243674576  0.8108111350920453
  0.5000000000000000  0.5000000000000000  0.8106209256692125
  0.6980774299206729  0.0989608756325424  0.8108111350920453
  0.9010391243674576  0.6980774299206729  0.8108111350920453
  0.0000000000000000  0.0000000000000000  0.8701067277058527
  0.4007213349026912  0.2052316212288474  0.8730610760880353
  0.2052316212288474  0.5992786650973088  0.8730610760880353
  0.5992786650973088  0.7947683787711526  0.8730610760880353
  0.7947683787711526  0.4007213349026912  0.8730610760880353
  0.0927255225197072  0.2968181215037831  0.9315555210825295
  0.2968181215037831  0.9072744774802928  0.9315555210825295
  0.5000000000000000  0.5000000000000000  0.9411694965318063
  0.7031818784962169  0.0927255225197072  0.9315555210825295
  0.9072744774802928  0.7031818784962169  0.9315555210825295
 
  0.00000000E+00  0.00000000E+00  0.00000000E+00
  0.00000000E+00  0.00000000E+00  0.00000000E+00
  0.00000000E+00  0.00000000E+00  0.00000000E+00
  0.00000000E+00  0.00000000E+00  0.00000000E+00
  0.00000000E+00  0.00000000E+00  0.00000000E+00
  0.00000000E+00  0.00000000E+00  0.00000000E+00
  0.00000000E+00  0.00000000E+00  0.00000000E+00
  0.00000000E+00  0.00000000E+00  0.00000000E+00
  0.00000000E+00  0.00000000E+00  0.00000000E+00
  0.00000000E+00  0.00000000E+00  0.00000000E+00
  0.00000000E+00  0.00000000E+00  0.00000000E+00
  0.00000000E+00  0.00000000E+00  0.00000000E+00
  0.00000000E+00  0.00000000E+00  0.00000000E+00
  0.00000000E+00  0.00000000E+00  0.00000000E+00
  0.00000000E+00  0.00000000E+00  0.00000000E+00
  0.00000000E+00  0.00000000E+00  0.00000000E+00
  0.00000000E+00  0.00000000E+00  0.00000000E+00
  0.00000000E+00  0.00000000E+00  0.00000000E+00
  0.00000000E+00  0.00000000E+00  0.00000000E+00
  0.00000000E+00  0.00000000E+00  0.00000000E+00
  0.00000000E+00  0.00000000E+00  0.00000000E+00
  0.00000000E+00  0.00000000E+00  0.00000000E+00
  0.00000000E+00  0.00000000E+00  0.00000000E+00
  0.00000000E+00  0.00000000E+00  0.00000000E+00
  0.00000000E+00  0.00000000E+00  0.00000000E+00
  0.00000000E+00  0.00000000E+00  0.00000000E+00
  0.00000000E+00  0.00000000E+00  0.00000000E+00
  0.00000000E+00  0.00000000E+00  0.00000000E+00
  0.00000000E+00  0.00000000E+00  0.00000000E+00
  0.00000000E+00  0.00000000E+00  0.00000000E+00
  0.00000000E+00  0.00000000E+00  0.00000000E+00
  0.00000000E+00  0.00000000E+00  0.00000000E+00
  0.00000000E+00  0.00000000E+00  0.00000000E+00
  0.00000000E+00  0.00000000E+00  0.00000000E+00
  0.00000000E+00  0.00000000E+00  0.00000000E+00
  0.00000000E+00  0.00000000E+00  0.00000000E+00
  0.00000000E+00  0.00000000E+00  0.00000000E+00
  0.00000000E+00  0.00000000E+00  0.00000000E+00
  0.00000000E+00  0.00000000E+00  0.00000000E+00
  0.00000000E+00  0.00000000E+00  0.00000000E+00
  0.00000000E+00  0.00000000E+00  0.00000000E+00
  0.00000000E+00  0.00000000E+00  0.00000000E+00
  0.00000000E+00  0.00000000E+00  0.00000000E+00
  0.00000000E+00  0.00000000E+00  0.00000000E+00
  0.00000000E+00  0.00000000E+00  0.00000000E+00
  0.00000000E+00  0.00000000E+00  0.00000000E+00
  0.00000000E+00  0.00000000E+00  0.00000000E+00
  0.00000000E+00  0.00000000E+00  0.00000000E+00
  0.00000000E+00  0.00000000E+00  0.00000000E+00
  0.00000000E+00  0.00000000E+00  0.00000000E+00
  0.00000000E+00  0.00000000E+00  0.00000000E+00
  0.00000000E+00  0.00000000E+00  0.00000000E+00
  0.00000000E+00  0.00000000E+00  0.00000000E+00
  0.00000000E+00  0.00000000E+00  0.00000000E+00
  0.00000000E+00  0.00000000E+00  0.00000000E+00
  0.00000000E+00  0.00000000E+00  0.00000000E+00
  0.00000000E+00  0.00000000E+00  0.00000000E+00
  0.00000000E+00  0.00000000E+00  0.00000000E+00
  0.00000000E+00  0.00000000E+00  0.00000000E+00
  0.00000000E+00  0.00000000E+00  0.00000000E+00
  0.00000000E+00  0.00000000E+00  0.00000000E+00
  0.00000000E+00  0.00000000E+00  0.00000000E+00
  0.00000000E+00  0.00000000E+00  0.00000000E+00
  0.00000000E+00  0.00000000E+00  0.00000000E+00
  0.00000000E+00  0.00000000E+00  0.00000000E+00
  0.00000000E+00  0.00000000E+00  0.00000000E+00
  0.00000000E+00  0.00000000E+00  0.00000000E+00
  0.00000000E+00  0.00000000E+00  0.00000000E+00
  0.00000000E+00  0.00000000E+00  0.00000000E+00
  0.00000000E+00  0.00000000E+00  0.00000000E+00
  0.00000000E+00  0.00000000E+00  0.00000000E+00
  0.00000000E+00  0.00000000E+00  0.00000000E+00
  0.00000000E+00  0.00000000E+00  0.00000000E+00
  0.00000000E+00  0.00000000E+00  0.00000000E+00
  0.00000000E+00  0.00000000E+00  0.00000000E+00
  0.00000000E+00  0.00000000E+00  0.00000000E+00
  0.00000000E+00  0.00000000E+00  0.00000000E+00
  0.00000000E+00  0.00000000E+00  0.00000000E+00
  0.00000000E+00  0.00000000E+00  0.00000000E+00
  0.00000000E+00  0.00000000E+00  0.00000000E+00
