n_sigma=   5, theta=  0.1974, angle= 11.
   4.04140000000000     
     2.5503321132000001    0.0000000000000000    0.0000000000000000
     0.0000000000000000    2.5503321132000001    0.0000000000000000
     0.0000000000000000    0.0000000000000000    4.1356034498999996
   Al
   104
Direct
  0.0000000000000000  0.0000000000000000  0.9968443471426198
  0.1639555382115034  0.2316767551741705  0.0076740347486322
  0.0657166783689362  0.6211097101487724  0.0116613932780254
  0.3788902898512276  0.0657166783689362  0.0116613932780254
  0.5211035411160054  0.3019513338045527  0.0004843133770223
  0.3019513338045527  0.4788964588839946  0.0004843133770223
  0.4788964588839946  0.6980486661954473  0.0004843133770223
  0.2316767551741705  0.8360444617884966  0.0076740347486322
  0.7683232448258366  0.1639555382115034  0.0076740347486322
  0.9342833216310638  0.3788902898512276  0.0116613932780254
  0.6980486661954473  0.5211035411160054  0.0004843133770223
  0.8360444617884966  0.7683232448258366  0.0076740347486322
  0.6211097101487724  0.9342833216310638  0.0116613932780254
  0.1880285550017220  0.0356482082466982  0.1261848422357161
  0.1194273442722604  0.4245701826084201  0.1280986874263661
  0.0356482082466982  0.8119714449982780  0.1261848422357161
  0.3463341003634923  0.2718415733626571  0.1270505389881720
  0.5754298173915799  0.1194273442722604  0.1280986874263661
  0.2718415733626571  0.6536658996365077  0.1270505389881720
  0.5000000000000000  0.5000000000000000  0.1213331356102856
  0.4245701826084201  0.8805726557277396  0.1280986874263661
  0.7281584266373429  0.3463341003634923  0.1270505389881720
  0.9643517917533018  0.1880285550017220  0.1261848422357161
  0.6536658996365077  0.7281584266373429  0.1270505389881720
  0.8805726557277396  0.5754298173915799  0.1280986874263661
  0.8119714449982780  0.9643517917533018  0.1261848422357161
  0.0000000000000000  0.0000000000000000  0.2536668643897144
  0.1536658996365077  0.2281584266373429  0.2479494610118280
  0.0754298173915799  0.6194273442722604  0.2469013125736339
  0.3805726557277396  0.0754298173915799  0.2469013125736339
  0.5356482082466982  0.3119714449982780  0.2488151577642839
  0.3119714449982780  0.4643517917533018  0.2488151577642839
  0.4643517917533018  0.6880285550017220  0.2488151577642839
  0.2281584266373429  0.8463341003634923  0.2479494610118280
  0.7718415733626571  0.1536658996365077  0.2479494610118280
  0.9245701826084201  0.3805726557277396  0.2469013125736339
  0.6880285550017220  0.5356482082466982  0.2488151577642839
  0.8463341003634923  0.7718415733626571  0.2479494610118280
  0.6194273442722604  0.9245701826084201  0.2469013125736339
  0.1980486661954473  0.0211035411160054  0.3745156866229777
  0.1211097101487724  0.4342833216310638  0.3633386067219746
  0.0211035411160054  0.8019513338045527  0.3745156866229777
  0.3360444617884966  0.2683232448258366  0.3673259652513678
  0.5657166783689362  0.1211097101487724  0.3633386067219746
  0.2683232448258366  0.6639555382115034  0.3673259652513678
  0.5000000000000000  0.5000000000000000  0.3781556528573802
  0.4342833216310638  0.8788902898512276  0.3633386067219746
  0.7316767551741634  0.3360444617884966  0.3673259652513678
  0.9788964588839946  0.1980486661954473  0.3745156866229777
  0.6639555382115034  0.7316767551741634  0.3673259652513678
  0.8788902898512276  0.5657166783689362  0.3633386067219746
  0.8019513338045527  0.9788964588839946  0.3745156866229777
  0.0000000000000000  0.0000000000000000  0.4968443471426198
  0.2316767551741705  0.1639555382115034  0.5076740347486322
  0.0657166783689362  0.3788902898512276  0.5116613932780254
  0.3019513338045527  0.5211035411160054  0.5004843133770223
  0.1639555382115034  0.7683232448258366  0.5076740347486322
  0.3788902898512276  0.9342833216310638  0.5116613932780254
  0.6211097101487724  0.0657166783689362  0.5116613932780254
  0.4788964588839946  0.3019513338045527  0.5004843133770223
  0.6980486661954473  0.4788964588839946  0.5004843133770223
  0.5211035411160054  0.6980486661954473  0.5004843133770223
  0.7683232448258366  0.8360444617884966  0.5076740347486322
  0.8360444617884966  0.2316767551741705  0.5076740347486322
  0.9342833216310638  0.6211097101487724  0.5116613932780254
  0.0356482082466982  0.1880285550017220  0.6261848422357161
  0.1194273442722604  0.5754298173915799  0.6280986874263661
  0.2718415733626571  0.3463341003634923  0.6270505389881720
  0.1880285550017220  0.9643517917533018  0.6261848422357161
  0.3463341003634923  0.7281584266373429  0.6270505389881720
  0.4245701826084201  0.1194273442722604  0.6280986874263661
  0.5000000000000000  0.5000000000000000  0.6213331356102856
  0.6536658996365077  0.2718415733626571  0.6270505389881720
  0.5754298173915799  0.8805726557277396  0.6280986874263661
  0.7281584266373429  0.6536658996365077  0.6270505389881720
  0.8119714449982780  0.0356482082466982  0.6261848422357161
  0.8805726557277396  0.4245701826084201  0.6280986874263661
  0.9643517917533018  0.8119714449982780  0.6261848422357161
  0.0000000000000000  0.0000000000000000  0.7536668643897144
  0.2281584266373429  0.1536658996365077  0.7479494610118280
  0.0754298173915799  0.3805726557277396  0.7469013125736339
  0.3119714449982780  0.5356482082466982  0.7488151577642839
  0.1536658996365077  0.7718415733626571  0.7479494610118280
  0.3805726557277396  0.9245701826084201  0.7469013125736339
  0.6194273442722604  0.0754298173915799  0.7469013125736339
  0.4643517917533018  0.3119714449982780  0.7488151577642839
  0.6880285550017220  0.4643517917533018  0.7488151577642839
  0.5356482082466982  0.6880285550017220  0.7488151577642839
  0.7718415733626571  0.8463341003634923  0.7479494610118280
  0.8463341003634923  0.2281584266373429  0.7479494610118280
  0.9245701826084201  0.6194273442722604  0.7469013125736339
  0.0211035411160054  0.1980486661954473  0.8745156866229777
  0.1211097101487724  0.5657166783689362  0.8633386067219746
  0.2683232448258366  0.3360444617884966  0.8673259652513678
  0.1980486661954473  0.9788964588839946  0.8745156866229777
  0.3360444617884966  0.7316767551741634  0.8673259652513678
  0.4342833216310638  0.1211097101487724  0.8633386067219746
  0.5000000000000000  0.5000000000000000  0.8781556528573802
  0.6639555382115034  0.2683232448258366  0.8673259652513678
  0.5657166783689362  0.8788902898512276  0.8633386067219746
  0.7316767551741634  0.6639555382115034  0.8673259652513678
  0.8019513338045527  0.0211035411160054  0.8745156866229777
  0.8788902898512276  0.4342833216310638  0.8633386067219746
  0.9788964588839946  0.8019513338045527  0.8745156866229777
 
  0.00000000E+00  0.00000000E+00  0.00000000E+00
  0.00000000E+00  0.00000000E+00  0.00000000E+00
  0.00000000E+00  0.00000000E+00  0.00000000E+00
  0.00000000E+00  0.00000000E+00  0.00000000E+00
  0.00000000E+00  0.00000000E+00  0.00000000E+00
  0.00000000E+00  0.00000000E+00  0.00000000E+00
  0.00000000E+00  0.00000000E+00  0.00000000E+00
  0.00000000E+00  0.00000000E+00  0.00000000E+00
  0.00000000E+00  0.00000000E+00  0.00000000E+00
  0.00000000E+00  0.00000000E+00  0.00000000E+00
  0.00000000E+00  0.00000000E+00  0.00000000E+00
  0.00000000E+00  0.00000000E+00  0.00000000E+00
  0.00000000E+00  0.00000000E+00  0.00000000E+00
  0.00000000E+00  0.00000000E+00  0.00000000E+00
  0.00000000E+00  0.00000000E+00  0.00000000E+00
  0.00000000E+00  0.00000000E+00  0.00000000E+00
  0.00000000E+00  0.00000000E+00  0.00000000E+00
  0.00000000E+00  0.00000000E+00  0.00000000E+00
  0.00000000E+00  0.00000000E+00  0.00000000E+00
  0.00000000E+00  0.00000000E+00  0.00000000E+00
  0.00000000E+00  0.00000000E+00  0.00000000E+00
  0.00000000E+00  0.00000000E+00  0.00000000E+00
  0.00000000E+00  0.00000000E+00  0.00000000E+00
  0.00000000E+00  0.00000000E+00  0.00000000E+00
  0.00000000E+00  0.00000000E+00  0.00000000E+00
  0.00000000E+00  0.00000000E+00  0.00000000E+00
  0.00000000E+00  0.00000000E+00  0.00000000E+00
  0.00000000E+00  0.00000000E+00  0.00000000E+00
  0.00000000E+00  0.00000000E+00  0.00000000E+00
  0.00000000E+00  0.00000000E+00  0.00000000E+00
  0.00000000E+00  0.00000000E+00  0.00000000E+00
  0.00000000E+00  0.00000000E+00  0.00000000E+00
  0.00000000E+00  0.00000000E+00  0.00000000E+00
  0.00000000E+00  0.00000000E+00  0.00000000E+00
  0.00000000E+00  0.00000000E+00  0.00000000E+00
  0.00000000E+00  0.00000000E+00  0.00000000E+00
  0.00000000E+00  0.00000000E+00  0.00000000E+00
  0.00000000E+00  0.00000000E+00  0.00000000E+00
  0.00000000E+00  0.00000000E+00  0.00000000E+00
  0.00000000E+00  0.00000000E+00  0.00000000E+00
  0.00000000E+00  0.00000000E+00  0.00000000E+00
  0.00000000E+00  0.00000000E+00  0.00000000E+00
  0.00000000E+00  0.00000000E+00  0.00000000E+00
  0.00000000E+00  0.00000000E+00  0.00000000E+00
  0.00000000E+00  0.00000000E+00  0.00000000E+00
  0.00000000E+00  0.00000000E+00  0.00000000E+00
  0.00000000E+00  0.00000000E+00  0.00000000E+00
  0.00000000E+00  0.00000000E+00  0.00000000E+00
  0.00000000E+00  0.00000000E+00  0.00000000E+00
  0.00000000E+00  0.00000000E+00  0.00000000E+00
  0.00000000E+00  0.00000000E+00  0.00000000E+00
  0.00000000E+00  0.00000000E+00  0.00000000E+00
  0.00000000E+00  0.00000000E+00  0.00000000E+00
  0.00000000E+00  0.00000000E+00  0.00000000E+00
  0.00000000E+00  0.00000000E+00  0.00000000E+00
  0.00000000E+00  0.00000000E+00  0.00000000E+00
  0.00000000E+00  0.00000000E+00  0.00000000E+00
  0.00000000E+00  0.00000000E+00  0.00000000E+00
  0.00000000E+00  0.00000000E+00  0.00000000E+00
  0.00000000E+00  0.00000000E+00  0.00000000E+00
  0.00000000E+00  0.00000000E+00  0.00000000E+00
  0.00000000E+00  0.00000000E+00  0.00000000E+00
  0.00000000E+00  0.00000000E+00  0.00000000E+00
  0.00000000E+00  0.00000000E+00  0.00000000E+00
  0.00000000E+00  0.00000000E+00  0.00000000E+00
  0.00000000E+00  0.00000000E+00  0.00000000E+00
  0.00000000E+00  0.00000000E+00  0.00000000E+00
  0.00000000E+00  0.00000000E+00  0.00000000E+00
  0.00000000E+00  0.00000000E+00  0.00000000E+00
  0.00000000E+00  0.00000000E+00  0.00000000E+00
  0.00000000E+00  0.00000000E+00  0.00000000E+00
  0.00000000E+00  0.00000000E+00  0.00000000E+00
  0.00000000E+00  0.00000000E+00  0.00000000E+00
  0.00000000E+00  0.00000000E+00  0.00000000E+00
  0.00000000E+00  0.00000000E+00  0.00000000E+00
  0.00000000E+00  0.00000000E+00  0.00000000E+00
  0.00000000E+00  0.00000000E+00  0.00000000E+00
  0.00000000E+00  0.00000000E+00  0.00000000E+00
  0.00000000E+00  0.00000000E+00  0.00000000E+00
  0.00000000E+00  0.00000000E+00  0.00000000E+00
  0.00000000E+00  0.00000000E+00  0.00000000E+00
  0.00000000E+00  0.00000000E+00  0.00000000E+00
  0.00000000E+00  0.00000000E+00  0.00000000E+00
  0.00000000E+00  0.00000000E+00  0.00000000E+00
  0.00000000E+00  0.00000000E+00  0.00000000E+00
  0.00000000E+00  0.00000000E+00  0.00000000E+00
  0.00000000E+00  0.00000000E+00  0.00000000E+00
  0.00000000E+00  0.00000000E+00  0.00000000E+00
  0.00000000E+00  0.00000000E+00  0.00000000E+00
  0.00000000E+00  0.00000000E+00  0.00000000E+00
  0.00000000E+00  0.00000000E+00  0.00000000E+00
  0.00000000E+00  0.00000000E+00  0.00000000E+00
  0.00000000E+00  0.00000000E+00  0.00000000E+00
  0.00000000E+00  0.00000000E+00  0.00000000E+00
  0.00000000E+00  0.00000000E+00  0.00000000E+00
  0.00000000E+00  0.00000000E+00  0.00000000E+00
  0.00000000E+00  0.00000000E+00  0.00000000E+00
  0.00000000E+00  0.00000000E+00  0.00000000E+00
  0.00000000E+00  0.00000000E+00  0.00000000E+00
  0.00000000E+00  0.00000000E+00  0.00000000E+00
  0.00000000E+00  0.00000000E+00  0.00000000E+00
  0.00000000E+00  0.00000000E+00  0.00000000E+00
  0.00000000E+00  0.00000000E+00  0.00000000E+00
  0.00000000E+00  0.00000000E+00  0.00000000E+00
